num_staff = 4;
work_load = [100, 100, 100, 100];
num_days = 10;	% was 23
unavailable = [
    {1, 10, 11, 20, 21},
    {1, 3, 10, 11, 20, 21},
    {3},
    {2}
];

fixed = [
    {},
    {},
    {1},
    {}
];
weekend_offset = 2;
adj_days_str = 1;
wed_before_weekend_str = 1;

max_week_day_bt = 0;
max_weekend_bt = 1; % found by previous runs with the original model

staffWork =   [1,   1];
desiredWork = [{3},{4}];
scWork =      [ 1 , 2];

staffNotWork =   [2];
desiredNotWork = [{3}];
scNotWork =      [ 3 ];


crCustomEdges = [| 2, 1 |];